<number of tasks>
100

<cycle time>
1000

<order strength>
0.595


<task times>
1 434
2 427
3 509
4 496
5 607
6 583
7 323
8 421
9 433
10 479
11 313
12 466
13 440
14 448
15 551
16 486
17 417
18 294
19 601
20 392
21 216
22 391
23 394
24 510
25 585
26 417
27 650
28 200
29 467
30 751
31 513
32 479
33 767
34 447
35 637
36 536
37 309
38 405
39 382
40 626
41 453
42 514
43 494
44 598
45 470
46 552
47 602
48 534
49 428
50 531
51 400
52 426
53 711
54 550
55 521
56 521
57 448
58 333
59 440
60 375
61 696
62 468
63 524
64 389
65 356
66 536
67 644
68 349
69 443
70 548
71 612
72 356
73 482
74 535
75 502
76 412
77 700
78 628
79 608
80 500
81 431
82 421
83 401
84 342
85 626
86 412
87 526
88 329
89 552
90 501
91 287
92 502
93 502
94 601
95 606
96 519
97 559
98 531
99 367
100 278

<precedence relations>
1,10
2,10
3,10
4,10
5,10
6,37
7,37
8,14
8,23
8,28
9,10
9,11
9,12
9,13
9,15
10,16
10,17
10,18
10,19
10,20
10,21
10,22
10,23
10,24
11,37
12,37
13,37
14,37
15,22
15,35
15,40
15,55
16,79
17,37
18,37
19,37
20,28
20,32
21,26
21,33
21,36
21,51
22,64
23,26
23,27
23,29
24,25
24,27
24,31
24,40
25,79
26,64
27,37
28,30
28,34
28,35
29,31
29,32
29,33
29,36
30,79
31,64
32,64
33,37
34,37
35,39
35,59
36,38
36,40
37,41
37,42
37,43
37,44
37,45
37,46
37,47
37,48
37,49
37,50
38,64
38,74
39,51
39,52
39,54
40,96
41,52
41,59
41,63
43,79
43,80
43,82
44,56
44,75
45,62
45,75
46,76
46,77
47,55
47,77
48,74
49,55
49,58
50,54
51,53
51,64
51,66
52,64
53,87
54,56
54,58
55,57
56,79
57,59
57,61
58,60
58,62
59,79
60,64
61,87
62,63
62,65
62,66
63,79
64,69
64,70
64,71
64,72
64,73
65,87
66,67
66,68
66,74
67,79
68,79
69,78
72,76
72,77
73,75
73,76
73,77
73,78
75,79
76,87
77,98
78,80
78,81
78,82
79,83
79,84
79,85
79,86
79,89
80,87
82,88
83,97
86,95
86,96
87,90
87,91
87,92
87,93
87,94
87,95
89,98
90,98
92,100
93,97
94,98
94,99
96,98

<end>
